
 102   30
  10   10   10   10   10   10   10   10   10   10   10   10   10   10   10   10   10   10   10   10   10   10   10   10   10   10   10   10   10   10

   0   0   0   0   0   0   0   0   0   0   0   0   0   0   0   0   0   0   0   0   0   0   0   0   0   0   0   0   0   0   0  23 2 3 4 5 6 7 8 9 10 11 14 16 18 21 23 25 26 28 31 32 34 38 41 
   3   0   0   0   0   0   0   0   0   0   0   0   1   0   0   0   0   0   0   2   1   0   0   0   0   0   0   0   0   0   2  17 77 54 52 51 48 47 45 43 37 35 33 29 27 22 20 19 12 
   9   0   0   0   0   0   0   0   0   0   0   0   0   1   1   0   0   0   0   0   0   0   0   0   0   0   0   0   1   0   0  17 77 75 66 63 60 56 54 53 52 51 49 48 46 35 19 15 13 
   8   0   0   0   0   0   1   0   0   0   0   0   0   0   0   0   0   0   0   0   0   1   0   0   0   0   0   0   0   0   0  14 74 63 60 53 52 50 47 44 42 40 36 35 29 24 
   3   0   0   0   0   0   0   0   0   0   0   0   0   0   9   0   1   0   0   0   0   0   0   0   0   0   0   0   0   1   0  21 101 76 75 74 72 68 67 66 64 60 59 58 57 51 50 49 46 44 43 39 30 
  10   0   0   0   0   0   6   0   1   0   1   0   0   0   0   0   0   3   0   0   0   0   0   0   0   0   0   0   0   0   0  17 101 77 76 64 60 59 58 57 55 51 50 48 45 43 39 33 22 
   3   0   0   0   0   0   0   0   0   0   0   0   0   5   0   1   0   0   0   0   0   0   0   0   0   0   0   0   0   0   4  14 76 75 74 60 57 55 53 51 49 44 42 39 22 17 
   1   0   0   0   1   0   6   0   0   1   0   3   0   0   0   0   0   0   1   0   0   0   0   0   0   0   0   0   3   0   0  11 99 75 68 66 57 56 52 49 48 39 13 
   6   0   0   0   0   0   0   0   0   0   0   0   0   7   3   0   0   0   7   0   0   0   0   1   0   0   0   0   0   0   0  16 100 77 73 67 66 58 55 51 50 48 46 45 44 42 40 39 
   7   0   0   1   0   0   0   0   0   0   0   0   9   0   0   6   0   0   0   0   0   0   1   0   1   3   0   0   0   0   0  12 77 76 68 59 58 57 55 52 44 42 39 22 
   2   0   0   0   0   0   0   0   0   0   0   0   0   0   0   0   8   0   0   0   2   0   0   0   8   0   0   0   0   0   0  13 101 99 72 66 63 59 58 55 51 49 48 43 37 
   8   0   0   0   0   0   0   0   0   0  10   0   6   0   0   0   6   0   0   0   0   0   0   0   0   0   0   0   0   0   7  17 101 98 97 93 76 75 73 72 69 68 65 62 60 58 56 50 44 
  10   0   0   0   0   0   0   0   0   0   0   0   0   0   5   0   0   0   0   0   0   0   0   0   0   0   0   3   0   0   0  13 101 100 98 92 91 88 74 72 58 55 50 45 43 
   5   0   0   0   0   0   0   0   0   0   0   0   0   0   0   0   0   0   0   0   0   0   0   0   0   0   0   5   0   0   0  13 99 98 72 70 67 62 59 58 57 55 53 49 40 
   3   0   0   0   0   0   0   0   8   0   0   0   0   0   0   0   0   0   0   0   0   6   0   0   0   0   2   0   8   0   0  16 99 97 96 95 94 90 74 73 72 71 65 59 57 55 50 39 
  10   0   1   0   7   1   0   0   0   0   3   0   0   0   4   0   0   0   0   0   0   6   8  10   0   0   0   0   0   0   0  16 100 99 97 96 95 94 90 73 71 65 63 59 57 55 50 39 
   2   0   0   0   0   0   0   0   0   0   0   0   0   0   0   0   0   0   0   0   0   0   0   0   0   0   0   0   5   0   0  15 99 98 97 92 72 70 69 66 65 63 59 58 56 52 43 
   8   0   0   5   0   0   6   0   0   8   0   4   0   0   0   9   0   0   0   4   0   5   7   0   0   0   0   0   0   7   0  14 99 97 95 90 74 73 71 70 66 65 62 60 53 39 
  10   0   0   0   0   0   0   0   4   0   0   0   0   0   0   0   0   0   0   0   0   0   0   0   0   0   0   0   0   0   0  13 95 94 91 90 74 68 65 64 61 57 55 50 42 
   6   4   0   0   7   0   0   0   0   0   0   0  10   0   0   0   0   0   0   0   0   0   2   0   0   0   0   7   0   6   0  12 101 98 97 90 73 72 65 64 57 55 53 40 
   5   0   0   0   0   0   0   0   0   0   0   5   0   0   0   0   0   0   0   0   0   0   0   0   0   0   0   6   0   0   0  14 100 98 97 96 95 91 90 77 72 66 57 55 51 50 
   1   0   0   5   0   0   0   0   0   0   0   0   0   0   0   0   0   0   0   0   0   0   0   0   0   0   7   0   0   0   0  20 100 99 98 95 93 92 91 90 87 84 81 80 73 71 70 69 66 65 63 62 
   6   0   0   0   0   0   0   0   0   0   0   0   0   0   0   0   0   0   0   0   0   0   0   7   0   5   0   5   0   0   9  13 100 98 96 95 92 91 88 64 62 59 52 51 48 
   2   0   0   5   0   0   0   0   0   0   0   0   0   0   0   0   0   0   0   0   0   0   0   0   8   9   0   5   0   0   0   8 97 96 90 66 65 64 55 37 
   6   4   0   0   0   0   0   0   0   0   9   0   0   0   0   0   0   0   0   0   0   0   0   0   0   0   0   0   0   0   5  17 101 100 98 97 96 94 92 88 87 84 75 74 70 69 65 58 52 
   6   0   0   0   0   0   0   0   0   0   0   0   0   0   0   0   5   0   0   0   0   5   0   0   0   0   0   0   0   0   0  15 98 97 95 93 92 87 84 80 72 71 69 63 62 57 51 
   1   0   0   0   0   0   0   3   6   0   0   0   0   0   0   0   8   0   0   0   0   0   5   0   0   0   0   4   0   0   0  12 101 100 96 93 87 81 78 75 73 72 65 46 
   7   0   0   0   0   0   0   0   0   3   0   0   0   0   0   0   0   0   0   0   0   0   0   2   0   2   7   0   0   0   8  13 99 98 95 94 93 90 89 88 87 69 63 53 50 
   2   0   0   0   0   0   0   0   9   0   0   0   0   0   0   8   0   7   0   0   0   0   0   0   0   0   0   0   0   0   0   9 101 96 94 83 72 65 57 55 39 
   5   0   3   0   0   0   0   0   0   0   0   0   0   6   0   7   0   0   0   0   0   0   6   0   0   0   0   0   0   0   0  16 97 96 95 94 93 92 90 88 87 86 84 71 70 63 56 52 
   3   0   0   0   0   0   0   0   0   0   6   0   0   0   0   0   0   0   0   8  10   7   0   0   0   0   0  10   0  10   0  14 101 98 96 93 92 91 89 87 82 81 75 73 69 50 
   6   0   0   0   0   0   0   0   0   6   8   0   0   0   0   0   0   0   0   0   0   0   0   6   0   0   0   0   0   5   0  12 101 100 97 91 88 84 81 69 65 64 58 54 
  10   0   0   0   0   0   4   0   0   0   0   0   0   0  10   0   8   0   0   0   0   0   9   0   0   0   0   7   0   0   0  10 97 85 84 82 78 72 67 66 65 44 
  10   0   0   0   0   0   0   0   0   0   0   4   0   7   0   0   0   0   0   0  10   0   0   5   0   7   0   0   0   0   0  18 100 99 98 95 93 91 90 88 87 85 84 83 82 81 80 72 70 69 
   4   0   0   0   0   0   0   0   5   0   0   0   0   0   0   0   4   0   0   0   0   0   0   5   0   0   0   0   0   0   0  12 98 94 93 90 82 81 78 76 73 72 65 59 
   6   4   0   0   2   0   0   0   0   0   0   4   0   9   0   0   0   0   0   0   9   0   0   0   0   0   0   9   0   7   0  15 100 97 95 92 91 90 88 87 85 84 80 79 77 67 65 
   8   0   3   0   0   0   0   6   0   0   0   0   0   0   0   0   0   0   0   0   0   1   8   0   0   0   0   0   0   8   0  12 100 95 93 92 89 86 84 80 79 70 62 57 
   4   0   0   0  10   0   0   8   0   0   0   0   5   0   0   0   0   0   0   0   0   0   0   0   0   0   0   0   0   0   0  15 98 95 94 93 91 88 87 86 85 84 82 81 80 70 69 
   5   0   0   5   0   0   4   0   0   0   6   0   0   0   0   0   6   0   5   0   0   0   0   5   0   0   0   0   0   0   0  15 98 93 92 91 89 88 87 86 85 84 82 81 80 78 69 
   1   0   0   0   0   0   0   0   0   0   0   7   9   0   0   0   0   0   0   0   0   0   0   0   7   0   0   0   0   0   0  14 95 94 93 91 89 88 87 84 83 82 80 78 71 69 
   7   0   0   0   0   9   0   0   0   0   0   0   0   0   0   0   0   0   0   0   4   0   0   0   0   0   0   0   0   0   0  10 97 92 91 89 87 83 80 79 75 57 
  10   3   0   0   0   0   0   0   0   0   0   0   0   0   0   0   0   0   0   0   0   0   0   0   0   0   0   0   0   0   0  13 99 98 97 93 92 87 85 84 83 82 81 78 72 
  10   0  10   0   0   0   0   0   0   7   0   0   5   0   0   0   0   0   6   0   0   9   6   0   0   0   0   0   0   0   0   9 96 95 90 87 84 82 80 71 62 
   6  10   0   0   0   2   0   0   0   0   0   0   0   0   0   0   0   0   0   0   0   0   8   0   0   0   0   0   0   0   0  11 99 96 95 90 88 87 86 83 81 80 71 
   8   0   0   0   0   0   0   0   0   0   0   0   7   0   0   0   9   0   0   0   0   0   0   0   0   0   0   0   7   0   0   9 97 96 90 87 81 80 79 70 65 
   6   0   4   0   0   9   0   0   0   0   0   0   0   0   0   0   0   4   0   0   7   9   0   0   0   0   0   0   8   0   0   9 97 91 90 89 86 84 82 80 62 
   8   0   7   0   0   0   0   0   0   0   0   0   0   0   0   0   0   7   0   0   0   0   5   0   5   0   0   0   0   0   0   9 101 88 87 85 84 83 81 70 65 
   8   0   0   0   0   0   0   0   0   0   0   7   6   4   0   0   0   0   9   0   0   0   0   0   0   0   0   0   0   0   0   8 90 87 84 81 80 78 71 69 
   5   0   0   0   0   0   0   0   0   0   0   9   6   4   0   0   0   0   0   0   0   0   0   0   0   6   0   0   0   0   0   7 97 91 89 86 81 80 73 
   6   0   0   0   0   0   0   0   0   0   0   0   8   0   0   0   0   4   0   0   0   0   0   0   0   0   8   0   0   0   0   6 86 85 84 83 80 70 
   5   0   0   0   0  10   0   0   0   7   7   0   4   6   4   0   0   5   0   0   0   0   0   0   0   0   0   0   0   0   0   5 85 82 79 78 65 
   9   5   0   0   0   0   0   0   0   0   0   0   0   0   0   0   0   0   0   0   0   5   0   0   0   0   0   8   0   0   0   6 85 83 82 81 79 78 
   9   0   0   0   0   0   0   0   0   0   0   0   0   0  10   0   0   0   5   0   5   0   0   0   0   0   0   0   0   0   0   6 96 92 86 85 81 80 
   2   0   0   0   0   0   0   0   0   0   0   0   0   4   0   0   0   0   0   0   5   0   0   0   0   0   0   0   0   0   0   6 96 90 87 85 83 78 
   9   6   0   0   0   0   0   0   0   0   0   0   0   0   0   0   0   0   0   0   0   0   0   0   0   0   0   0   0   0   0   5 93 89 87 78 69 
   6   0   0   0   0   0   0   0   0   0   0   0   0   0   0   0   0   0   0   0   0  10   0  10   0   6   0   0   0   0   4   5 91 83 81 80 78 
   2   0   0   0   0   0   0   0   0   0   3   9   0   6   0   0   0   0   0   0   0   0   0   0   0   0   0   0   6   0   0   4 88 82 81 78 
   4   0  10   0   0   0   0   3   0   0   0   0   0   0   0   0   0   0   0   0  10   0   0   0   0   0   0   0   0   0   0   4 82 80 79 78 
   3   0   0   0   0   0   0   0   0   0   0   0   0   0   0   0   0  10   0   0   0   0   0   0   0   0   3   0   3   0   5   4 87 84 83 80 
   7   0   0   0   0   8   0   0   0   0   0   0   0   0   9   0   0   5   0   0   0   7   0   0   0   0   4   4   7   6   0   4 92 86 82 78 
   8   6   0   0   0   0   0   0   0   0   0   0   0   0   0   0   0   0   7   0   6   0   0   0   0   0   0   0   0   0   0   4 88 84 82 81 
   8   8   0   8   7   0   0   0   0   0   0   0   0   0   0   0   0   0   0   0   0   8   0   0   0   0   0   9   0   0   0   3 94 85 83 
   1   0   0   0   0   0   0   0   0   0   0   0   0   0   0   0   0   0   0   0   0   0   0   0   0   0   0   0   0   6   0   3 83 82 78 
   7   0   0   0   0   0   0   0   0   0   0   0   0   8   0   6   0   0   0  10   0   7   0   0   0   0   7   0   0   0   0   3 86 80 78 
   6   0   0   0   9   0   0   0   0   0   0   0   0   0   0   0   9   9   0   0   0   0   0   8   0   0   0   0   0   0   0   2 89 86 
   3   0   0   0   4   0   0   8   6   0   0   6   0   0   0   9   0   0   0   0   4   0   0   0   0   6   8   0   0   0   0   2 88 79 
   4   0   0   0   0   0   0   0   0   0   0   0   0   0   0   0   0   0   0   0   0   0   0   3   0   0   0   0   5   0   0   2 86 83 
   5   0   0   0   0   0   0   0   0   0   0   0   0   0   0   0   0   7   0   0   0   0   0   0   0   0   0   0   0   0   0   2 84 81 
   4   0   0   0   8   0   0   0   0   0   0   0   0   0  10   0   2   0   0   0   0   0   0   0   0   0   0   0   0   0   0   1 79 
   5   0   0   8   0   0   0   0   0   0   0   0   0   3   0   0   0   0   0   0   0   0   0   6   8   0   5   0   0   0   0   1 78 
   2   0   0   0   0   0   9   6   3   0   6   5   0   0   0   5   0   0   0   0   0   0   0   5   0   0   0   0   0   0   0   1 79 
   8   6   0   0   9   0   0   0   0   0   0   0   6  10   5   3   0   0   0   6   0   0   0   0   0   0   0   0   0   0   7   1 79 
   6   0   0   8   0   0   7   0   0   0   0   0   0   0   0   0   0   0   0   0   0   0   6   0   0   0   0   0   0   0   0   1 88 
   1   0   0   0   0   0   0   0   0   0   0   0   0   0   0   0   0   0   0   0   0   0   0   9   0   0   0   0   8   0   0   1 81 
   2   0   0   7   0   0   0   0  10   0   0   0   0   0   6   0   0   0   0   0   0   0   0   0   0   0   0   7   0   0   7   1 85 
   5   6   0   0   0   9   0   4   0   0   0   0   0   5   0   0   0   0   0   0   0   4   8   0   0   5   0   0   0   4   5   1 84 
   9   0   0   9   0   7   3   0   0   0   0   5   4   0   0   0   0   0   0   0   0   0   6   0   0   0   0   0   0   7   0   1 82 
   9   0   0   0   6   0   0   0   0   7   0   0   0   0   0   0   0   0   0   0   0   0   0   3   0   0   0   0   0   0  10   1 102
   4   0   0   0   0   0   0   0   0   0   0   0   0   0   0   0   0   0   0   6   0   0   0   0   0   0   0   0   0   0   0   1 102
   3   0   0   0   0   5   5   0   0   0   7   0   0   0   0   0   0   0   7   0   0   0   5   0   0   0   0   0   0   7   0   1 102
   6   0   9   0   0   0   0   0   9   0   0   0   0   0   0   0   0   0   0   0   0   0   0   0   0   0   0   0   8   0   0   1 102
   3   0   0   0   0   0   0   0   0   0   9   0   4   0   0   0   0   0   0   0   0   0   0   0   0   0   0   0   0   0   0   1 102
   2   0   0   0   0   0   0   0   0   8   0   6   0   0   0   0   0   0   6   0   0   0   0   0   0   0   5   0   5   0   0   1 102
  10   0   0   0   5   0   0   6   0   0   0   0   6   6   0   0   0   0   0   0   0   0   0   0   0   0   0   0   0   0   0   1 102
   6   0   0   0   0   0   0   6   0   0   0   0   0   0   0   0   0   0   0   0   0   0   0   0   0   0   0   0  10   5   0   1 102
   3   0   0   0   0   4   0   0   0   0   2   0   0   0   0   0   0   0   0   0   0   0   0   9   0  10   0   0   0   0   0   1 102
  10   0   6   0   0   0   0   0   0   0   0   0   0   9   0   0   0   0   0   0   0   0   0   0   0   0   0   0   0   0   0   1 102
  10  10   0   0   0   0   0   0   3   0   0   0   0   0   0   5   0   0   0   0   0   0   6   0   0   0   0   0   0   0   0   1 102
   4   0   0   5   0   0   0   0   0   0   0   0   0   0   0   6   0   0   0   0   0   0   0   0   0   0   0   0   0   0   0   1 102
   3   0   0   0   3   0   0   0   0   0   0   0   0   0   0  10   0   5   0   0   0   0   0   0   0   0   0   0   0   5   0   1 102
  10   0   0   0   0   0   0   0   0   0   0   0   0   0   0   0   0   0   0   0   0   0   0   0   0   0  10   5   0   0   0   1 102
   9   0   0   0   0   4  10   0   7   0   0   0   0   0   0   0   0   0   5   0   0   0   0   0   0   0   0   0   8   0   0   1 102
   8   0   0   0   0   5   0   0   0   0   0   0   0   5   0   0   0   0   0   0   0   0   0   0   0   0   0   0   0   0   0   1 102
   5   0   0   0   0   0   9   6   0   0   0   0   0   0   0   0   0   0   0   0   0   0   0   0   0   0   0   2   0   0   2   1 102
   2   0   0   0   0   0   0  10   5   7   0   0   0   0   0   0   0   0   0   0   5   0   0   0   0   0   0   0   0   0   0   1 102
   1   0   6   0   0   0   7   0   0   0   0   0   0   9   0   0   0   0   0   0   0   0   0   4   0   7   0   0   0   0   0   1 102
   6   0   0   0   0   0   7   0   0   0   7   0   0   0   5   0   0   0   0   0   0   0   0  10   0   0   0   0   0   0   9   1 102
   6   0   0   0   0   0   0   0   0   0   0  10   0   0   0   0   0   0   7   0   0   0   0   0   0   0   0   0   0   0   0   1 102
   3   0   0   0   0   5   0   0   8   0   0   0   0   0   3   3   0   0   0   0   0   0   0   0   5   0   0   0   0   0   0   1 102
   2   0   7   0   0   0   0   0   0   0   0   0   0   0   0   0   0   0   7   0   0   0   0   0   0   0   0   0   4   0   0   1 102
   2   0   0   0   0   0   0   0   0   0   0   0   0   0   0   0   0   0   0   0   0   0   0   0   6   0   0   0   0   0   0   1 102
   0   0   0   0   0   0   0   0   0   0   0   0   0   0   0   0   0   0   0   0   0   0   0   0   0   0   0   0   0   0   0   0 
